
******************************************************************************
This program contains Ipopt, a library for large-scale nonlinear optimization.
 Ipopt is released as open source code under the Eclipse Public License (EPL).
         For more information visit http://projects.coin-or.org/Ipopt
******************************************************************************

This is Ipopt version 3.12.6, running with linear solver ma57.

Number of nonzeros in equality constraint Jacobian...:    14998
Number of nonzeros in inequality constraint Jacobian.:        0
Number of nonzeros in Lagrangian Hessian.............:     5000

Total number of variables............................:     5000
                     variables with only lower bounds:        0
                variables with lower and upper bounds:        0
                     variables with only upper bounds:        0
Total number of equality constraints.................:     5000
Total number of inequality constraints...............:        0
        inequality constraints with only lower bounds:        0
   inequality constraints with lower and upper bounds:        0
        inequality constraints with only upper bounds:        0

iter    objective    inf_pr   inf_du lg(mu)  ||d||  lg(rg) alpha_du alpha_pr  ls
   0  0.0000000e+00 3.00e+00 0.00e+00  -1.0 0.00e+00    -  0.00e+00 0.00e+00   0
   1  0.0000000e+00 4.49e-01 0.00e+00  -1.0 4.74e-01    -  1.00e+00 1.00e+00h  1
   2  0.0000000e+00 2.16e-02 0.00e+00  -1.7 1.04e-01    -  1.00e+00 1.00e+00h  1
   3  0.0000000e+00 6.58e-05 0.00e+00  -3.8 5.74e-03    -  1.00e+00 1.00e+00h  1
   4  0.0000000e+00 7.55e-10 0.00e+00  -5.7 1.94e-05    -  1.00e+00 1.00e+00h  1

Number of Iterations....: 4

                                   (scaled)                 (unscaled)
Objective...............:   0.0000000000000000e+00    0.0000000000000000e+00
Dual infeasibility......:   0.0000000000000000e+00    0.0000000000000000e+00
Constraint violation....:   7.5480510730585593e-10    7.5480510730585593e-10
Complementarity.........:   0.0000000000000000e+00    0.0000000000000000e+00
Overall NLP error.......:   7.5480510730585593e-10    7.5480510730585593e-10


Number of objective function evaluations             = 5
Number of objective gradient evaluations             = 5
Number of equality constraint evaluations            = 5
Number of inequality constraint evaluations          = 0
Number of equality constraint Jacobian evaluations   = 5
Number of inequality constraint Jacobian evaluations = 0
Number of Lagrangian Hessian evaluations             = 4
Total CPU secs in IPOPT (w/o function evaluations)   =      0.013
Total CPU secs in NLP function evaluations           =      0.007

EXIT: Optimal Solution Found.
Note: The following floating-point exceptions are signalling: IEEE_UNDERFLOW_FLAG IEEE_DENORMAL

************************ CUTEst statistics ************************


 Package used            :  IPOPT
 Problem                 :  BROYDN3D  
 # variables             =            5000
 # constraints           =            5000
 # objective functions   =        0.1100000E+02
 # objective gradients   =        0.6000000E+01
 # objective Hessians    =        0.5000000E+01
 # Hessian-vector prdct  =        0.0000000E+00
 # constraints functions =        0.1200000E+02
 # constraints gradients =        0.7000000E+01
 # constraints Hessians  =        0.5000000E+01
 Exit code               =               0
 Final f                 =   0.0000000E+00
 Set up time             =            0.04 seconds
 Solve time              =            0.05 seconds


******************************************************************

System Time =       0.0260000005 s.
